Route #1: 31 46 35
Route #2: 4 13 74
Route #3: 52 91 50
Route #4: 92 9 86
Route #5: 100 61 23
Route #6: 8 17
Route #7: 63 77 3
Route #8: 34 64 96 48 26 47 38
Route #9: 44 67 88 40
Route #10: 75 93
Route #11: 57 72 36 29 43 45 2 7
Route #12: 24 95 73 53 33 32
Route #13: 68 90 84 66
Route #14: 1 70 54
Route #15: 81 51 83
Route #16: 69 16 55 76
Route #17: 15 22 41 20
Route #18: 25 65 78 42 28
Route #19: 59 60 82
Route #20: 5 12 58
Route #21: 71 62 99 98 89
Route #22: 39 10 18
Route #23: 80 94 56 21
Route #24: 30 85 11 79
Route #25: 19 97 27
Route #26: 14 49 6 37 87
Cost 27591.0000
Time 16.0002